
Gurobi 12.0.2 (win64) logging started Fri Jun  6 10:11:08 2025

Set parameter LogFile to value "C:\Ioana\_uni\honours\slp\algorithm\Main_files\results\others\prox_tubules_new\Task_027_Sample003_irr_gurobi.log"
Gurobi Optimizer version 12.0.2 build v12.0.2rc0 (win64 - Windows 11.0 (26100.2))

CPU model: Intel(R) Core(TM) Ultra 5 125H, instruction set [SSE2|AVX|AVX2]
Thread count: 14 physical cores, 18 logical processors, using up to 18 threads

Non-default parameters:
TimeLimit  2200

Optimize a model with 47658 rows, 34802 columns and 147849 nonzeros
Model fingerprint: 0x98b5d999
Variable types: 17408 continuous, 17394 integer (17394 binary)
Coefficient statistics:
  Matrix range     [1e-04, 8e+04]
  Objective range  [2e-04, 9e-01]
  Bounds range     [1e+00, 1e+03]
  RHS range        [1e+00, 1e+00]
Presolve removed 31253 rows and 21843 columns
Presolve time: 0.29s
Presolved: 16405 rows, 12959 columns, 54588 nonzeros
Variable types: 6413 continuous, 6546 integer (6546 binary)
Found heuristic solution: objective 27.5603194

Root relaxation: objective 3.173840e+00, 0 iterations, 0.00 seconds (0.00 work units)

    Nodes    |    Current Node    |     Objective Bounds      |     Work
 Expl Unexpl |  Obj  Depth IntInf | Incumbent    BestBd   Gap | It/Node Time

*    0     0               0       3.1738398    3.17384  0.00%     -    0s

Explored 1 nodes (0 simplex iterations) in 0.43 seconds (0.45 work units)
Thread count was 18 (of 18 available processors)

Solution count 2: 3.17384 27.5603 

Optimal solution found (tolerance 1.00e-04)
Best objective 3.173839811998e+00, best bound 3.173839811998e+00, gap 0.0000%
